
Gurobi 8.1.0 (mac64, Python) logging started Fri Feb 15 17:06:08 2019

Academic license - for non-commercial use only
Parameter OutputFlag unchanged
   Value: 1  Min: 0  Max: 1  Default: 1
Changed value of parameter QCPDual to 1
   Prev: 0  Min: 0  Max: 1  Default: 0
Optimize a model with 2000 rows, 1000 columns and 2000 nonzeros
Coefficient statistics:
  Matrix range     [1e+00, 1e+00]
  Objective range  [3e-05, 4e-03]
  Bounds range     [0e+00, 0e+00]
  RHS range        [2e+01, 3e+02]
Presolve removed 2000 rows and 1000 columns
Presolve time: 0.01s
Presolve: All rows and columns removed
Iteration    Objective       Primal Inf.    Dual Inf.      Time
       0   -1.2249542e+02   0.000000e+00   0.000000e+00      0s

Solved in 0 iterations and 0.03 seconds
Optimal objective -1.224954227e+02
Parameter OutputFlag unchanged
   Value: 1  Min: 0  Max: 1  Default: 1
Changed value of parameter QCPDual to 1
   Prev: 0  Min: 0  Max: 1  Default: 0
Optimize a model with 2000 rows, 1000 columns and 2000 nonzeros
Coefficient statistics:
  Matrix range     [1e+00, 1e+00]
  Objective range  [4e-03, 4e-03]
  Bounds range     [0e+00, 0e+00]
  RHS range        [2e+01, 3e+02]
Presolve removed 2000 rows and 1000 columns
Presolve time: 0.01s
Presolve: All rows and columns removed
Iteration    Objective       Primal Inf.    Dual Inf.      Time
       0    0.0000000e+00   0.000000e+00   0.000000e+00      0s

Solved in 0 iterations and 0.02 seconds
Optimal objective  0.000000000e+00
Parameter OutputFlag unchanged
   Value: 1  Min: 0  Max: 1  Default: 1
Changed value of parameter QCPDual to 1
   Prev: 0  Min: 0  Max: 1  Default: 0
Optimize a model with 2000 rows, 1000 columns and 2000 nonzeros
Coefficient statistics:
  Matrix range     [1e+00, 1e+00]
  Objective range  [4e-03, 4e-03]
  Bounds range     [0e+00, 0e+00]
  RHS range        [2e+01, 3e+02]
Presolve removed 2000 rows and 1000 columns
Presolve time: 0.01s
Presolve: All rows and columns removed
Iteration    Objective       Primal Inf.    Dual Inf.      Time
       0    0.0000000e+00   0.000000e+00   0.000000e+00      0s

Solved in 0 iterations and 0.01 seconds
Optimal objective  0.000000000e+00

Gurobi 8.1.0 (mac64, Python) logging started Fri Feb 15 17:10:36 2019

Academic license - for non-commercial use only
Parameter OutputFlag unchanged
   Value: 1  Min: 0  Max: 1  Default: 1
Changed value of parameter QCPDual to 1
   Prev: 0  Min: 0  Max: 1  Default: 0
Optimize a model with 2000 rows, 1000 columns and 2000 nonzeros
Coefficient statistics:
  Matrix range     [1e+00, 1e+00]
  Objective range  [4e-03, 4e-03]
  Bounds range     [0e+00, 0e+00]
  RHS range        [2e+01, 3e+02]
Presolve removed 2000 rows and 1000 columns
Presolve time: 0.01s
Presolve: All rows and columns removed
Iteration    Objective       Primal Inf.    Dual Inf.      Time
       0    0.0000000e+00   0.000000e+00   0.000000e+00      0s

Solved in 0 iterations and 0.01 seconds
Optimal objective  0.000000000e+00
Parameter OutputFlag unchanged
   Value: 1  Min: 0  Max: 1  Default: 1
Changed value of parameter QCPDual to 1
   Prev: 0  Min: 0  Max: 1  Default: 0
Optimize a model with 2000 rows, 1000 columns and 2000 nonzeros
Coefficient statistics:
  Matrix range     [1e+00, 1e+00]
  Objective range  [2e-03, 4e-03]
  Bounds range     [0e+00, 0e+00]
  RHS range        [2e+01, 3e+02]
Presolve removed 2000 rows and 1000 columns
Presolve time: 0.01s
Presolve: All rows and columns removed
Iteration    Objective       Primal Inf.    Dual Inf.      Time
       0    0.0000000e+00   0.000000e+00   0.000000e+00      0s

Solved in 0 iterations and 0.01 seconds
Optimal objective  0.000000000e+00
Parameter OutputFlag unchanged
   Value: 1  Min: 0  Max: 1  Default: 1
Changed value of parameter QCPDual to 1
   Prev: 0  Min: 0  Max: 1  Default: 0
Optimize a model with 2000 rows, 1000 columns and 2000 nonzeros
Coefficient statistics:
  Matrix range     [1e+00, 1e+00]
  Objective range  [4e-03, 2e-02]
  Bounds range     [0e+00, 0e+00]
  RHS range        [2e+01, 3e+02]
Presolve removed 2000 rows and 1000 columns
Presolve time: 0.01s
Presolve: All rows and columns removed
Iteration    Objective       Primal Inf.    Dual Inf.      Time
       0   -9.3945516e+02   0.000000e+00   0.000000e+00      0s

Solved in 0 iterations and 0.01 seconds
Optimal objective -9.394551631e+02
Parameter OutputFlag unchanged
   Value: 1  Min: 0  Max: 1  Default: 1
Changed value of parameter QCPDual to 1
   Prev: 0  Min: 0  Max: 1  Default: 0
Optimize a model with 2000 rows, 1000 columns and 2000 nonzeros
Coefficient statistics:
  Matrix range     [1e+00, 1e+00]
  Objective range  [4e-02, 1e-01]
  Bounds range     [0e+00, 0e+00]
  RHS range        [2e+01, 3e+02]
Presolve removed 2000 rows and 1000 columns
Presolve time: 0.01s
Presolve: All rows and columns removed
Iteration    Objective       Primal Inf.    Dual Inf.      Time
       0   -5.8456828e+03   0.000000e+00   0.000000e+00      0s

Solved in 0 iterations and 0.01 seconds
Optimal objective -5.845682807e+03
Parameter OutputFlag unchanged
   Value: 1  Min: 0  Max: 1  Default: 1
Changed value of parameter QCPDual to 1
   Prev: 0  Min: 0  Max: 1  Default: 0
Optimize a model with 2000 rows, 1000 columns and 2000 nonzeros
Coefficient statistics:
  Matrix range     [1e+00, 1e+00]
  Objective range  [2e-01, 5e-01]
  Bounds range     [0e+00, 0e+00]
  RHS range        [2e+01, 3e+02]
Presolve removed 2000 rows and 1000 columns
Presolve time: 0.01s
Presolve: All rows and columns removed
Iteration    Objective       Primal Inf.    Dual Inf.      Time
       0   -2.4244036e+04   0.000000e+00   0.000000e+00      0s

Solved in 0 iterations and 0.01 seconds
Optimal objective -2.424403647e+04
Parameter OutputFlag unchanged
   Value: 1  Min: 0  Max: 1  Default: 1
Changed value of parameter QCPDual to 1
   Prev: 0  Min: 0  Max: 1  Default: 0
Optimize a model with 2000 rows, 1000 columns and 2000 nonzeros
Coefficient statistics:
  Matrix range     [1e+00, 1e+00]
  Objective range  [5e-01, 2e+00]
  Bounds range     [0e+00, 0e+00]
  RHS range        [2e+01, 3e+02]
Presolve removed 2000 rows and 1000 columns
Presolve time: 0.01s
Presolve: All rows and columns removed
Iteration    Objective       Primal Inf.    Dual Inf.      Time
       0   -7.3306313e+04   0.000000e+00   0.000000e+00      0s

Solved in 0 iterations and 0.01 seconds
Optimal objective -7.330631292e+04
Parameter OutputFlag unchanged
   Value: 1  Min: 0  Max: 1  Default: 1
Changed value of parameter QCPDual to 1
   Prev: 0  Min: 0  Max: 1  Default: 0
Optimize a model with 2000 rows, 1000 columns and 2000 nonzeros
Coefficient statistics:
  Matrix range     [1e+00, 1e+00]
  Objective range  [1e+00, 3e+00]
  Bounds range     [0e+00, 0e+00]
  RHS range        [2e+01, 3e+02]
Presolve removed 2000 rows and 1000 columns
Presolve time: 0.01s
Presolve: All rows and columns removed
Iteration    Objective       Primal Inf.    Dual Inf.      Time
       0   -1.4689973e+05   0.000000e+00   0.000000e+00      0s

Solved in 0 iterations and 0.01 seconds
Optimal objective -1.468997276e+05
Parameter OutputFlag unchanged
   Value: 1  Min: 0  Max: 1  Default: 1
Changed value of parameter QCPDual to 1
   Prev: 0  Min: 0  Max: 1  Default: 0
Optimize a model with 2000 rows, 1000 columns and 2000 nonzeros
Coefficient statistics:
  Matrix range     [1e+00, 1e+00]
  Objective range  [1e-03, 4e-03]
  Bounds range     [0e+00, 0e+00]
  RHS range        [2e+01, 3e+02]
Presolve removed 2000 rows and 1000 columns
Presolve time: 0.01s
Presolve: All rows and columns removed
Iteration    Objective       Primal Inf.    Dual Inf.      Time
       0    0.0000000e+00   0.000000e+00   0.000000e+00      0s

Solved in 0 iterations and 0.01 seconds
Optimal objective  0.000000000e+00
Parameter OutputFlag unchanged
   Value: 1  Min: 0  Max: 1  Default: 1
Changed value of parameter QCPDual to 1
   Prev: 0  Min: 0  Max: 1  Default: 0
Optimize a model with 2000 rows, 1000 columns and 2000 nonzeros
Coefficient statistics:
  Matrix range     [1e+00, 1e+00]
  Objective range  [2e-08, 3e-03]
  Bounds range     [0e+00, 0e+00]
  RHS range        [2e+01, 3e+02]
Presolve removed 2000 rows and 1000 columns
Presolve time: 0.01s
Presolve: All rows and columns removed
Iteration    Objective       Primal Inf.    Dual Inf.      Time
       0   -1.1198695e+00   0.000000e+00   0.000000e+00      0s

Solved in 0 iterations and 0.01 seconds
Optimal objective -1.119869452e+00
Parameter OutputFlag unchanged
   Value: 1  Min: 0  Max: 1  Default: 1
Changed value of parameter QCPDual to 1
   Prev: 0  Min: 0  Max: 1  Default: 0
Optimize a model with 2000 rows, 1000 columns and 2000 nonzeros
Coefficient statistics:
  Matrix range     [1e+00, 1e+00]
  Objective range  [1e-04, 3e-03]
  Bounds range     [0e+00, 0e+00]
  RHS range        [2e+01, 3e+02]
Presolve removed 2000 rows and 1000 columns
Presolve time: 0.01s
Presolve: All rows and columns removed
Iteration    Objective       Primal Inf.    Dual Inf.      Time
       0    0.0000000e+00   0.000000e+00   0.000000e+00      0s

Solved in 0 iterations and 0.01 seconds
Optimal objective  0.000000000e+00
Parameter OutputFlag unchanged
   Value: 1  Min: 0  Max: 1  Default: 1
Changed value of parameter QCPDual to 1
   Prev: 0  Min: 0  Max: 1  Default: 0
Optimize a model with 2000 rows, 1000 columns and 2000 nonzeros
Coefficient statistics:
  Matrix range     [1e+00, 1e+00]
  Objective range  [2e-08, 3e-03]
  Bounds range     [0e+00, 0e+00]
  RHS range        [2e+01, 3e+02]
Presolve removed 2000 rows and 1000 columns
Presolve time: 0.01s
Presolve: All rows and columns removed
Iteration    Objective       Primal Inf.    Dual Inf.      Time
       0   -1.1198695e+00   0.000000e+00   0.000000e+00      0s

Solved in 0 iterations and 0.01 seconds
Optimal objective -1.119869452e+00
Parameter OutputFlag unchanged
   Value: 1  Min: 0  Max: 1  Default: 1
Changed value of parameter QCPDual to 1
   Prev: 0  Min: 0  Max: 1  Default: 0
Optimize a model with 2000 rows, 1000 columns and 2000 nonzeros
Coefficient statistics:
  Matrix range     [1e+00, 1e+00]
  Objective range  [2e-05, 3e-03]
  Bounds range     [0e+00, 0e+00]
  RHS range        [2e+01, 3e+02]
Presolve removed 2000 rows and 1000 columns
Presolve time: 0.01s
Presolve: All rows and columns removed
Iteration    Objective       Primal Inf.    Dual Inf.      Time
       0   -8.6880806e-02   0.000000e+00   0.000000e+00      0s

Solved in 0 iterations and 0.03 seconds
Optimal objective -8.688080622e-02

Gurobi 8.1.0 (mac64, Python) logging started Fri Feb 15 17:32:12 2019

Academic license - for non-commercial use only
Parameter OutputFlag unchanged
   Value: 1  Min: 0  Max: 1  Default: 1
Changed value of parameter QCPDual to 1
   Prev: 0  Min: 0  Max: 1  Default: 0
Optimize a model with 2000 rows, 1000 columns and 2000 nonzeros
Coefficient statistics:
  Matrix range     [1e+00, 1e+00]
  Objective range  [2e-05, 3e-03]
  Bounds range     [0e+00, 0e+00]
  RHS range        [2e+01, 3e+02]
Presolve removed 2000 rows and 1000 columns
Presolve time: 0.02s
Presolve: All rows and columns removed
Iteration    Objective       Primal Inf.    Dual Inf.      Time
       0   -8.6880806e-02   0.000000e+00   0.000000e+00      0s

Solved in 0 iterations and 0.02 seconds
Optimal objective -8.688080622e-02
Parameter OutputFlag unchanged
   Value: 1  Min: 0  Max: 1  Default: 1
Changed value of parameter QCPDual to 1
   Prev: 0  Min: 0  Max: 1  Default: 0
Optimize a model with 2000 rows, 1000 columns and 2000 nonzeros
Coefficient statistics:
  Matrix range     [1e+00, 1e+00]
  Objective range  [4e-03, 4e-03]
  Bounds range     [0e+00, 0e+00]
  RHS range        [2e+01, 3e+02]
Presolve removed 2000 rows and 1000 columns
Presolve time: 0.01s
Presolve: All rows and columns removed
Iteration    Objective       Primal Inf.    Dual Inf.      Time
       0    0.0000000e+00   0.000000e+00   0.000000e+00      0s

Solved in 0 iterations and 0.01 seconds
Optimal objective  0.000000000e+00
